NAME : tsp_129_sol.txt
COMMENT : OR-Tools Guided Local Search
TYPE : TOUR
DIMENSION : 50
COST : 6020
STATUS : ROUTING_SUCCESS
GAP : 0.00% (Reference Solution)
TOUR_SECTION
1
40
49
48
38
32
7
28
6
27
29
18
21
37
35
24
45
2
31
8
46
36
50
26
9
20
5
23
34
10
43
41
11
12
42
47
30
13
14
4
22
33
15
19
25
17
16
3
39
44
-1
